!File created by the GAMESS Input Deck Generator Plugin for Avogadro
 $BASIS GBASIS=STO NGAUSS=3 $END
 $CONTRL SCFTYP=RHF RUNTYP=Optimize NZVAR=1 mult=1  ICHARG=0 $END
 $STATPT hssend=.t. OPTTOL=0.0005 NSTEP=50 $END
 $STATPT HESS=calc ihrep=5 $END
 $FORCE nvib=2 $END
 $ZMAT DLC=.t. auto=.t. nonvdw(1)=1,6,3,4 $END
 $ZMAT IFZMAT(1)=1,1,6,1,3,4 fvalue(1)=2.00,2.20 $END

 $DATA 
Title
C1
C     6.0     2.98412    -0.87538    -3.06348
C     6.0     2.67939    -1.00709    -1.77023
C     6.0     2.99066     0.09449    -0.78888
C     6.0     4.50382     0.33956    -0.59651
C     6.0     5.25998    -0.65937    -1.45706
C     6.0     6.13374    -0.30259    -2.41103
C     6.0     6.43535     1.11313    -2.69227
C     6.0     5.85430     2.09198    -1.99324
C     6.0     4.88707     1.78050    -0.92112
O     8.0     4.40446     2.70412    -0.28487
H     1.0     2.75925    -1.67712    -3.75941
H     1.0     3.45758     0.02796    -3.43646
H     1.0     2.21110    -1.92890    -1.44067
H     1.0     2.52026     1.02221    -1.18473
H     1.0     2.53018    -0.13955     0.19687
H     1.0     4.77569     0.12887     0.46084
H     1.0     5.08280    -1.71845    -1.29150
H     1.0     6.63577    -1.07131    -2.99014
H     1.0     7.14617     1.35936    -3.47478
H     1.0     6.09988     3.12669    -2.21426
 $END
