!File created by the GAMESS Input Deck Generator Plugin for Avogadro
 $BASIS GBASIS=STO NGAUSS=3 $END
 $CONTRL SCFTYP=RHF RUNTYP=SADPOINT $END
 $STATPT hssend=.t. OPTTOL=0.0005 NSTEP=50 $END
 $STATPT HESS=calc ihrep=5 $END
 $FORCE nvib=2 $END
 $ZMAT DLC=.t. auto=.t. nonvdw(1)=1,6,3,4,4,5,5,6,1,2,2,3 $END
!$ZMAT IFZMAT(1)=1,1,6,1,3,4 fvalue(1)=2.00,2.20 $END


 $DATA 
Title
C1
C     6.0     3.70425177    -0.77094907    -3.16067362
C     6.0     2.84881878    -0.86488551    -1.98873818
C     6.0     2.74858236     0.16364835    -1.12907529
C     6.0     4.79174423     0.34731886    -0.33424494
C     6.0     5.42033291    -0.62241346    -1.02843356
C     6.0     5.55494118    -0.46517804    -2.46680498
C     6.0     5.83609152     0.94632155    -2.90849519
C     6.0     5.55723572     1.98120368    -2.14157128
C     6.0     4.95145607     1.79915571    -0.76973492
O     8.0     4.63917112     2.74043846    -0.04961450
H     1.0     3.77041674    -1.66649795    -3.77233148
H     1.0     3.58149314     0.12279113    -3.76537466
H     1.0     2.61132264    -1.86193657    -1.63735509
H     1.0     2.84069324     1.17939389    -1.48199856
H     1.0     2.21828127     0.05613397    -0.19150573
H     1.0     4.56441116     0.21003413     0.71689051
H     1.0     5.49950218    -1.62169600    -0.61729419
H     1.0     6.14786482    -1.21736789    -2.98077226
H     1.0     6.25582743     1.08023298    -3.89957047
H     1.0     5.75420094     2.99868393    -2.45297456
$END
