!File created by the GAMESS Input Deck Generator Plugin for Avogadro
 $BASIS GBASIS=STO NGAUSS=3 $END
 $CONTRL SCFTYP=RHF RUNTYP=IRC $END
 $STATPT HESS=READ ihrep=5 $END
 $irc npoint=100 saddle=.t. tsengy=.t. forwrd=.t. opttol=0.0005 stride=0.1 $end

 $DATA 
Title
C1
C     6.0     3.73740149    -0.76250017    -3.13296604
C     6.0     2.87444496    -0.85688329    -2.02685070
C     6.0     2.86088300     0.18675293    -1.08645105
C     6.0     4.65152645     0.34037581    -0.38072908
C     6.0     5.42478275    -0.62664664    -1.04573309
C     6.0     5.51936245    -0.48586729    -2.44343567
C     6.0     5.77859974     0.92829490    -2.91393876
C     6.0     5.52688599     1.97221291    -2.15207171
C     6.0     4.94441938     1.80192804    -0.76699960
O     8.0     4.72016335     2.73986864    -0.01507264
H     1.0     3.82438850    -1.63987517    -3.76608658
H     1.0     3.69762278     0.15344648    -3.71084905
H     1.0     2.65217400    -1.85214722    -1.65938437
H     1.0     2.77942061     1.19424140    -1.47826755
H     1.0     2.25955892     0.04759366    -0.19404790
H     1.0     4.50651503     0.21345311     0.68866551
H     1.0     5.52637386    -1.61241221    -0.60856843
H     1.0     6.08874178    -1.23720050    -2.98307252
H     1.0     6.18492842     1.04546213    -3.91273808
H     1.0     5.73844576     2.98433471    -2.47107530
 $END

 $HESS
ENERGY IS     -416.0940651668 E(NUC) IS      511.4677804338
 1  1 1.37364802E-01-5.22306942E-02-2.06444126E-01-1.19173648E-01-8.77933100E-02
 1  2 5.27893147E-02 1.09568295E-01 8.96492549E-02 1.12176428E-01-1.55621322E-01
 1  3 5.21966564E-02 2.28109810E-03 2.83905742E-02-5.86105498E-02-1.79185026E-01
 1  4 1.35809894E-01 3.67308342E-02 1.79558198E-01-3.16406075E-02-3.16860124E-02
 1  5-9.11060405E-03-7.40961116E-03 8.89809053E-03 4.85752409E-03 1.15187026E-02
 1  6-6.09160906E-04 5.20704955E-03-2.42296852E-03 3.31446382E-03-7.05190682E-04
 1  7-4.88744371E-02 2.80050106E-02 3.33970399E-02-2.36571140E-02 1.88541744E-02
 1  8 1.66045727E-02 5.87371394E-04 4.94280945E-03 3.53667836E-03-2.09352870E-02
 1  9-3.67458235E-03-5.98096733E-03-7.74728029E-04-6.57197998E-04-1.68151700E-03
 1 10 7.48137733E-03 2.14471202E-03 1.12993312E-03 3.79211239E-04-1.22052845E-03
 1 11 1.58537102E-03-2.55927946E-02-8.53750573E-03-1.16453391E-02 1.54362311E-03
 1 12 4.19814701E-04 3.74247479E-04 3.45481856E-03-1.34054082E-04 1.25345674E-03
 2  1-5.22306942E-02 8.94076216E-01 3.56674073E-03-3.17096303E-03-1.68135102E-01
 2  2-5.30571347E-03 4.03737480E-02 2.34355519E-02-1.62051213E-02-2.38116973E-02
 2  3 7.56569002E-03-2.85581169E-03 7.93275210E-03-7.31526952E-03-2.38113261E-02
 2  4 2.75189644E-02-4.03750762E-02 2.46835206E-02-2.00464403E-02-9.59774122E-03
 2  5-6.91191675E-03-1.34170975E-03 1.69187026E-04 2.13159871E-04 7.02257256E-04
 2  6-1.10340986E-03 1.72957223E-03 1.38901589E-04 6.26923354E-04-4.07409851E-04
 2  7 2.02923414E-02-3.41797672E-01-1.81884973E-01 2.60589126E-02-3.62794956E-01
 2  8 1.77597588E-01-2.58410070E-02 5.73694179E-03 3.21287907E-02-1.96136010E-03
 2  9 1.83660290E-03 5.16458451E-04-4.07308963E-03-4.77548043E-03-5.94448759E-03
 2 10 4.02464415E-04 2.94066561E-04 2.23539504E-04-8.99731890E-04-1.23372852E-04
 2 11-2.15209774E-04 7.99388472E-03 1.78578746E-03 2.18833013E-03 7.31093208E-04
 2 12 6.25560661E-05 4.83149387E-04 1.23074617E-03 4.29080917E-04 2.11044842E-04
 3  1-2.06444126E-01 3.56674073E-03 8.55668533E-01 1.91816342E-01 5.19880628E-02
 3  2-3.47993983E-01-4.72573184E-03-1.99731210E-02-4.94282176E-02 3.05478417E-02
 3  3-8.27241565E-03-2.47557891E-03-1.21845419E-02 2.24474843E-04 4.92348892E-03
 3  4-2.14207684E-02-4.11135436E-03-5.59834397E-02 2.05799883E-05-5.11955165E-03
 3  5 1.05783467E-03-8.10688940E-04 1.05731534E-03 1.24546305E-03-2.72208333E-03
 3  6 4.69981819E-04-4.11010497E-03 1.89899068E-05 4.12156003E-04 1.38516515E-03
 3  7 1.64840627E-02-1.80426520E-01-2.10778640E-01-1.04657096E-02 1.68585687E-01
 3  8-1.89640992E-01 1.22085639E-02-8.15064254E-03-7.22035567E-03 8.94912285E-05
 3  9-5.70737057E-04 7.79225126E-04 3.90890349E-03-4.56898854E-03-6.37117598E-04
 3 10-2.36888206E-03 1.61597624E-04 1.08161867E-03-9.13090571E-04 2.03762322E-03
 3 11-6.15705402E-04 7.21129822E-03 1.80479777E-03 2.50835678E-03 1.08949385E-05
 3 12 9.38188944E-04-1.25591669E-04-2.61453915E-04-5.24519821E-05 3.61104631E-04
 4  1-1.19173648E-01-3.17096303E-03 1.91816342E-01 3.89308253E-01 1.11238691E-01
 4  2-2.20075510E-01-1.08717896E-01-2.10519786E-02 1.02328692E-02 2.95788875E-02
 4  3-1.42243174E-02-3.18611675E-03-5.39992789E-02 3.25762221E-03 3.88444007E-02
 4  4-8.41812292E-02-1.33221759E-02-6.59736527E-02 6.31575062E-03 5.70028850E-03
 4  5 1.51874722E-03 1.97409892E-03-2.16292975E-03-5.61803402E-04-2.34097157E-03
 4  6 6.47549727E-05-2.27229116E-03 2.49027175E-04-1.76164956E-03 2.89348792E-04
 4  7-1.43082200E-04-3.95342288E-03-6.48205642E-03-9.76295830E-03-8.38578116E-04
 4  8-9.89741478E-03-6.88255720E-02-8.11406177E-02 4.28187625E-02 7.74492563E-03
 4  9 2.18219852E-03 1.33353697E-03 7.84798093E-03 2.14087161E-02 1.81202183E-02
 4 10-1.89453553E-03-1.02472224E-03-8.32360800E-04 3.47715193E-03-2.34142162E-03
 4 11 2.28781906E-03 4.07720782E-03 1.22366288E-03 2.25128973E-03-4.11475383E-04
 4 12-1.58953457E-04 4.09588099E-05-1.12132321E-03 7.39031705E-05-2.73346848E-04
 5  1-8.77933100E-02-1.68135102E-01 5.19880628E-02 1.11238691E-01 8.91711977E-01
 5  2-1.46825238E-03 6.63800966E-02-3.33654329E-01-1.39431087E-01-8.75238730E-02
 5  3 1.83105024E-02-6.69552527E-03 2.94205964E-02-1.58696412E-02-4.93322382E-02
 5  4 4.38347589E-02 6.62851164E-03 4.01206057E-02-4.01077351E-03-4.28544039E-03
 5  5 3.77442792E-05-2.09866805E-03 1.72164623E-03 2.58739810E-04 6.08746831E-03
 5  6 1.38584598E-03 3.19696829E-03-1.12745191E-03 7.38741701E-04-9.00591729E-04
 5  7 2.86385759E-02 9.84096951E-03-2.56549342E-02-2.22876975E-02 7.45026697E-03
 5  8 3.11885986E-02-6.13120405E-02-4.04466547E-01 1.24328773E-01-1.70603998E-02
 5  9-2.17614087E-02-3.60904997E-02-6.25814495E-03 1.08771664E-02 7.59250368E-03
 5 10 5.11880581E-03 9.85263319E-04 5.75277022E-04 1.61343146E-05-8.09599613E-04
 5 11 4.52811001E-04-2.30906893E-03-4.50770615E-04-3.69997460E-04 3.10671316E-04
 5 12-1.71559914E-04 3.88537131E-07 7.34839159E-04-4.60287706E-05 2.01613182E-04
 6  1 5.27893147E-02-5.30571347E-03-3.47993983E-01-2.20075510E-01-1.46825238E-03
 6  2 6.90833710E-01 1.44296774E-01-9.51685399E-02-1.92018025E-01-1.64705683E-01
 6  3 2.86147947E-02-1.71489189E-02 2.64998474E-02-5.55444601E-02-1.12906593E-01
 6  4 1.08355209E-01 1.74212288E-02 1.09297086E-01-1.00411455E-02-6.72439947E-03
 6  5-2.11953598E-03-3.56039585E-03 2.27517298E-03 1.06584810E-03 9.66993854E-03
 6  6 5.57449959E-03 5.42319625E-03-1.05023254E-03 3.46239737E-04-1.65239281E-03
 6  7 2.30305224E-02 8.17337195E-03-8.04566061E-03 3.59266630E-02 2.49649852E-03
 6  8-5.86408429E-05 3.51646329E-02 1.15694421E-01-1.19173747E-01-2.14947864E-02
 6  9 1.25537279E-02 1.17723764E-02-1.66204563E-02-2.61562378E-02-1.73976722E-02
 6 10 6.48629114E-03 1.38233573E-03 1.49870785E-03 1.92237733E-03-3.48112376E-04
 6 11 1.27016088E-03-8.77183645E-03-3.09768038E-03-3.34041749E-03 6.48586668E-04
 6 12-6.45285579E-04 3.55035770E-04 1.52763895E-03-7.26441239E-05 3.38480615E-04
 7  1 1.09568295E-01 4.03737480E-02-4.72573184E-03-1.08717896E-01 6.63800966E-02
 7  2 1.44296774E-01 2.74485090E-01-8.91225707E-02-3.45251980E-01 1.28965615E-01
 7  3-3.67501045E-02 5.15825688E-03-8.29381008E-02 5.60334348E-02 1.01015415E-01
 7  4-6.75883543E-02-4.30946807E-03-8.52286153E-02 7.27054918E-03 1.78055750E-03
 7  5 5.60861758E-04 3.63642186E-03-4.03962903E-04 9.25237166E-04-2.72085003E-02
 7  6-2.49382633E-02-1.21887051E-02 6.88250732E-04 5.46613019E-03 5.00687276E-03
 7  7-2.07780847E-03-8.69487659E-04 5.68929182E-03-1.52897457E-02-4.39906180E-03
 7  8-6.22604212E-03 3.41527635E-03-4.52954683E-03-3.95281969E-03-4.23465007E-02
 7  9 2.50524674E-02 9.55618348E-03-1.74209199E-01-2.99546358E-02 1.87299360E-01
 7 10-1.05359540E-02-1.60262874E-03-7.68727394E-04-9.79038324E-04-6.56136888E-04
 7 11-1.10416935E-03 5.68891098E-03 1.95767021E-03 1.15363773E-03-9.50647296E-04
 7 12 3.65447768E-04-3.51399685E-04-8.74465763E-04 1.25456698E-04-8.62879890E-04
 8  1 8.96492549E-02 2.34355519E-02-1.99731210E-02-2.10519786E-02-3.33654329E-01
 8  2-9.51685399E-02-8.91225707E-02 8.77933819E-01-3.56001925E-02 9.95566424E-02
 8  3-6.01088466E-02 1.18635505E-02-3.02800706E-02 3.10259035E-02 5.67608047E-02
 8  4-5.25478119E-02-7.95364864E-03-6.29097116E-02 6.66890964E-03 4.49048754E-03
 8  5 2.83877590E-03 4.65408361E-03-1.01403523E-03-1.31070332E-04-2.22053945E-02
 8  6-9.65838655E-03-1.32600389E-02 7.21211237E-04-1.32684847E-03 3.18047746E-03
 8  7-5.88515417E-03 2.93958781E-04-9.29715075E-04-6.52298757E-03-6.34354013E-04
 8  8-3.94350802E-03-9.49620593E-05-1.86594545E-02-3.55572391E-02 5.04442971E-02
 8  9-4.11722155E-01 1.41547903E-01-2.21974897E-02-9.17743421E-02 4.84792645E-02
 8 10-2.86231051E-03-5.52041270E-04 1.65834430E-04-4.88606278E-04-2.00386877E-03
 8 11 6.12879112E-04 3.80600831E-03 1.70668149E-03 2.53505849E-03-6.33034706E-04
 8 12 1.48560359E-04-1.49518836E-04-1.60631846E-03 2.55522775E-05-3.61833924E-04
 9  1 1.12176428E-01-1.62051213E-02-4.94282176E-02 1.02328692E-02-1.39431087E-01
 9  2-1.92018025E-01-3.45251980E-01-3.56001925E-02 7.39269617E-01 1.46375767E-01
 9  3-2.60740580E-02-3.73953399E-02-5.64175177E-02 4.48461573E-02 8.18742565E-02
 9  4-6.11954871E-02-1.00149959E-02-8.59032867E-02 7.65905862E-03 1.23877495E-04
 9  5 2.95576779E-03 1.60914537E-03-1.42560999E-03 1.07738203E-04-1.03615024E-02
 9  6-8.71087878E-03-4.58474919E-03-3.30712919E-04 4.68401195E-04 2.42218294E-03
 9  7 4.01636919E-03 1.17412371E-03-3.92260053E-03-1.33043000E-02-3.31542301E-03
 9  8-3.41109379E-03-1.63518961E-03 1.63422914E-02 1.20972629E-02 2.05138618E-02
 9  9 1.35610274E-01-1.25750554E-01 2.04728797E-01 4.56580451E-02-3.34254247E-01
 9 10-2.34904831E-02-4.35135643E-03-5.62393491E-03 6.96258537E-04-2.02140840E-03
 9 11 6.81232975E-04 5.80405207E-03 2.81750494E-03 3.25771870E-03-7.74145630E-04
 9 12 1.50555297E-04-2.18580290E-04-1.04910922E-03-4.29770137E-05-1.55402043E-04
10  1-1.55621322E-01-2.38116973E-02 3.05478417E-02 2.95788875E-02-8.75238730E-02
10  2-1.64705683E-01 1.28965615E-01 9.95566424E-02 1.46375767E-01 1.52080047E-01
10  3-7.04889843E-02-2.16060085E-01-1.00218240E-01 9.14002681E-02-1.46397746E-02
10  4 8.45895938E-02 6.66126093E-03 1.34792711E-01-1.54714227E-02 7.48639027E-03
10  5-6.86487250E-03 9.51437111E-03-1.28598488E-02 2.47720737E-03-7.32847026E-02
10  6-1.59052166E-02 4.05688496E-02 2.00420022E-02 6.62431204E-03-6.28162328E-03
10  7 4.97551991E-03-7.81878037E-04 2.46605645E-03 1.47504328E-02 4.00329232E-03
10  8 6.41509539E-03 6.19259362E-04 1.51965808E-03 6.06005328E-04-3.20612430E-02
10  9-3.56219145E-03-9.80515698E-03-2.18223047E-02 1.56221699E-03-1.38027846E-02
10 10-5.12364057E-02-4.25290326E-05 6.48352102E-02 4.86980600E-03-2.56134469E-03
10 11 2.75475770E-03-2.17010982E-03-1.29955002E-03-2.03751587E-03 1.53373811E-04
10 12-2.10418444E-04-4.28355936E-04 1.74505897E-03 2.35290525E-04 2.78609803E-03
11  1 5.21966564E-02 7.56569002E-03-8.27241565E-03-1.42243174E-02 1.83105024E-02
11  2 2.86147947E-02-3.67501045E-02-6.01088466E-02-2.60740580E-02-7.04889843E-02
11  3 7.23985531E-01 4.54537812E-02 1.22994044E-01-3.06554745E-01-5.54179657E-02
11  4-3.82271518E-02 9.55670943E-03-5.20504614E-02 2.48756414E-03-3.25961768E-03
11  5-1.13024598E-03-3.74435381E-03-3.33976292E-03 3.35635829E-03-5.07874443E-02
11  6-2.26122332E-01 4.75215260E-02-9.64453493E-04-6.44209039E-02-1.10613062E-02
11  7-2.60601007E-03 7.29238268E-04-3.46626890E-06-6.46912726E-03-1.91204596E-03
11  8-1.84579263E-03-5.45170131E-04-1.26274408E-03 8.17524068E-04 1.87768652E-02
11  9 1.77506196E-03 5.47711938E-03-5.88419984E-04 7.42912705E-05-3.64422583E-05
11 10-6.01604908E-03-8.53469252E-02 4.55170413E-02 2.58031863E-02-1.23862989E-02
11 11-2.43328234E-02 6.17815057E-03 1.97089538E-03 3.87056141E-03 5.76859196E-04
11 12 2.40455917E-04-3.35541600E-04 2.39892280E-03 5.06629526E-04-6.73894251E-05
12  1 2.28109810E-03-2.85581169E-03-2.47557891E-03-3.18611675E-03-6.69552527E-03
12  2-1.71489189E-02 5.15825688E-03 1.18635505E-02-3.73953399E-02-2.16060085E-01
12  3 4.54537812E-02 8.94721580E-01 1.17913197E-01-1.24444180E-01-2.25120231E-01
12  4 2.46210314E-02-3.78481104E-02-2.80226866E-02-3.49341115E-03 3.65692758E-03
12  5 2.06296912E-03 1.35727433E-02 3.54871175E-02-7.17214010E-03 2.50716380E-02
12  6 5.37041077E-02-1.43921848E-01-2.92622209E-03-3.97898699E-02 1.63277706E-02
12  7-1.13483119E-03 7.29988011E-04 8.56235677E-04-1.41046262E-03-8.85627400E-04
12  8 3.77711591E-04-1.20709025E-03-1.00788829E-03 5.06390717E-04-1.20239079E-02
12  9-1.26246052E-03-3.26590612E-03 1.03734449E-02-5.03510548E-04 4.42478932E-03
12 10 4.67005533E-02 4.83897724E-02-4.54179683E-01-8.27361133E-03 1.52079560E-02
12 11 1.22195442E-02 1.14652750E-03 2.54268232E-03-7.78252816E-03-1.15149672E-03
12 12-6.28982079E-04 4.41857216E-04 4.02875538E-03-1.11290843E-03-5.45318098E-03
13  1 2.83905742E-02 7.93275210E-03-1.21845419E-02-5.39992789E-02 2.94205964E-02
13  2 2.64998474E-02-8.29381008E-02-3.02800706E-02-5.64175177E-02-1.00218240E-01
13  3 1.22994044E-01 1.17913197E-01 3.50291686E-01-1.76873287E-01-1.08701920E-01
13  4-1.04350957E-01 1.93165939E-02 1.64066979E-02 6.49695964E-03-1.42721599E-02
13  5 9.55349283E-03-9.02106842E-04 8.49290513E-04 4.22415249E-03-2.72734569E-03
13  6 1.08182326E-03-1.25843839E-02 3.48590916E-04-6.15941741E-03 1.16853399E-03
13  7-9.48767110E-04 1.35941917E-04-1.24068829E-03-4.32950079E-03-8.92989561E-04
13  8-2.81668660E-03 4.00900028E-03 2.94178418E-03 1.93236296E-04 7.25997555E-03
13  9 1.27436519E-03 2.50907418E-03 3.31611681E-03 1.14194989E-04 2.28934078E-03
13 10-3.24878646E-03-2.10422049E-04-6.33379584E-03-5.34740466E-02 4.69122596E-02
13 11-7.92368516E-03 6.45754239E-03-3.62056134E-03 2.66194371E-02 8.69839757E-04
13 12-5.07799472E-04 2.52714808E-04-3.02335489E-04-1.58839170E-04 5.73427251E-04
14  1-5.86105498E-02-7.31526952E-03 2.24474843E-04 3.25762221E-03-1.58696412E-02
14  2-5.55444601E-02 5.60334348E-02 3.10259035E-02 4.48461573E-02 9.14002681E-02
14  3-3.06554745E-01-1.24444180E-01-1.76873287E-01 8.77125191E-01-1.16206333E-01
14  4 4.52010767E-02-1.47908124E-01 9.97333491E-02-7.13809097E-03-7.40523991E-03
14  5 4.44690949E-02-9.05586298E-04 3.64742823E-03 7.83143395E-04 3.41690765E-02
14  6-3.53371395E-02-1.12933649E-02-4.37500334E-03-1.97196675E-03 2.24808040E-03
14  7 1.05018468E-03 2.33180182E-04 7.45357519E-04 3.95859703E-03 4.35736277E-04
14  8 2.19004664E-03 1.48736997E-03-3.72562956E-05 8.40301715E-04-7.71699044E-03
14  9-8.12017810E-04-2.12458643E-03-3.74456942E-03 4.64004897E-04-2.59947836E-03
14 10-5.51754739E-04 1.02811856E-02 8.08116088E-03 2.92187005E-02-4.01742067E-01
14 11 1.40758352E-01-5.98408409E-03 7.72403261E-03-3.29007232E-02-5.93405593E-04
14 12-7.06007936E-03 1.08230120E-03 7.15801119E-04 1.07768420E-03-8.89153914E-04
15  1-1.79185026E-01-2.38113261E-02 4.92348892E-03 3.88444007E-02-4.93322382E-02
15  2-1.12906593E-01 1.01015415E-01 5.67608047E-02 8.18742565E-02-1.46397746E-02
15  3-5.54179657E-02-2.25120231E-01-1.08701920E-01-1.16206333E-01 7.74746756E-01
15  4 1.54434669E-01 4.73370483E-02-3.66326267E-01-1.87325376E-02 2.00801382E-02
15  5-2.03760106E-02 1.40599242E-03-4.63794353E-03-3.18204612E-03 1.96492212E-03
15  6-9.63813671E-03 2.43114211E-02 1.19096386E-04 1.07458390E-02-6.29804225E-04
15  7 6.46767834E-03-8.62654406E-04 2.40268606E-03 1.59364802E-02 3.40137089E-03
15  8 6.84333916E-03 1.54519455E-03 1.27716565E-03 3.78953813E-04-1.29694761E-02
15  9-6.51466769E-04-3.25653353E-03-5.68177464E-03 8.43810415E-04-2.73094544E-03
15 10 3.49034642E-02-2.99633548E-02-6.26618578E-03-8.16532316E-05 1.48878842E-01
15 11-1.40168817E-01-1.79214083E-02 3.26368820E-03-1.44703481E-02 2.20535030E-04
15 12-1.68575791E-03 7.29731571E-04 1.05347877E-03-3.81096541E-04-7.78011357E-04
16  1 1.35809894E-01 2.75189644E-02-2.14207684E-02-8.41812292E-02 4.38347589E-02
16  2 1.08355209E-01-6.75883543E-02-5.25478119E-02-6.11954871E-02 8.45895938E-02
16  3-3.82271518E-02 2.46210314E-02-1.04350957E-01 4.52010767E-02 1.54434669E-01
16  4 2.83401118E-01-1.67144506E-01-3.24358875E-01-8.20769663E-02 4.25936360E-03
16  5 3.62743506E-02 1.67897874E-02-9.36126459E-04-1.42470871E-02-2.09474874E-02
16  6 6.18078542E-03-7.59140964E-03 3.72473938E-03-4.67388652E-03-2.08383294E-04
16  7-9.10872679E-03 2.06371137E-03-1.96765391E-03-2.66887260E-02-5.36520509E-03
16  8-1.19389447E-02-1.22194881E-03-4.72101919E-04-1.42263033E-03 9.40017805E-03
16  9 3.47857087E-04 1.61935697E-03 3.62401794E-03-1.14000223E-03 7.97533374E-04
16 10-8.95524111E-04 4.88516762E-03 3.16097019E-03 4.98248591E-03 2.01162437E-03
16 11-1.77140766E-03-1.57559607E-01 1.46166734E-01 1.08473344E-01 2.34667003E-03
16 12-1.29007313E-02 1.74643650E-03 9.95366794E-03 9.36787792E-04 6.64086314E-03
17  1 3.67308342E-02-4.03750762E-02-4.11135436E-03-1.33221759E-02 6.62851164E-03
17  2 1.74212288E-02-4.30946807E-03-7.95364864E-03-1.00149959E-02 6.66126093E-03
17  3 9.55670943E-03-3.78481104E-02 1.93165939E-02-1.47908124E-01 4.73370483E-02
17  4-1.67144506E-01 7.63809604E-01 2.05630074E-02-3.51275632E-02-2.83000974E-01
17  5 6.12396746E-02 7.02277808E-04-4.56706548E-02 1.51368098E-03-2.47736151E-03
17  6 6.00346866E-03 1.11602459E-03 4.25298816E-04-2.30965977E-03 9.87635617E-04
17  7-1.43336852E-02 7.66911540E-04-5.61168427E-03 9.49704847E-03 2.40325568E-03
17  8 4.03734235E-03 2.30646253E-04-1.64765772E-04-1.84605158E-04 1.71141924E-03
17  9 3.47576616E-04-1.11485021E-05 4.25211048E-04-4.53334318E-04 5.45835476E-04
17 10 6.25898809E-03-4.66358650E-03-8.79650815E-04-1.56934762E-03 6.09184811E-03
17 11 3.96732559E-02 1.54796688E-01-2.62218065E-01-1.27934075E-01 3.24176436E-03
17 12 3.38824776E-04-5.45217837E-03-1.71295191E-03-1.22930619E-03-2.38653074E-03
18  1 1.79558198E-01 2.46835206E-02-5.59834397E-02-6.59736527E-02 4.01206057E-02
18  2 1.09297086E-01-8.52286153E-02-6.29097116E-02-8.59032867E-02 1.34792711E-01
18  3-5.20504614E-02-2.80226866E-02 1.64066979E-02 9.97333491E-02-3.66326267E-01
18  4-3.24358875E-01 2.05630074E-02 7.43491575E-01 5.86310342E-02 5.53044990E-02
18  5-1.36013466E-01-7.97047900E-03-1.84147420E-02 1.63667764E-02-1.28149453E-02
18  6 3.78467723E-03-7.28690497E-03 2.06504464E-03-2.25339062E-03 1.03115824E-03
18  7-1.59976090E-02 1.79785191E-03-5.99660136E-03-2.92799516E-02-5.07782532E-03
18  8-1.24391592E-02 4.16193159E-04 2.43885168E-03-1.32524331E-03 1.34924649E-02
18  9 2.89635246E-03 3.53990114E-03 5.53708872E-03-4.34744222E-04 4.66569747E-03
18 10-3.65487976E-03-3.49927800E-03-1.26633225E-03-8.61987722E-04-1.01812430E-02
18 11-8.15038463E-03 1.27611655E-01-1.28089558E-01-1.65831913E-01 4.42911704E-03
18 12 3.49034236E-02-1.57226519E-03 3.20342697E-03-3.31799455E-03-2.27436743E-03
19  1-3.16406075E-02-2.00464403E-02 2.05799883E-05 6.31575062E-03-4.01077351E-03
19  2-1.00411455E-02 7.27054918E-03 6.66890964E-03 7.65905862E-03-1.54714227E-02
19  3 2.48756414E-03-3.49341115E-03 6.49695964E-03-7.13809097E-03-1.87325376E-02
19  4-8.20769663E-02-3.51275632E-02 5.86310342E-02 3.12710089E-01-3.68745441E-02
19  5-2.78287119E-01-1.09525124E-01 9.17350242E-02 1.01769632E-01 5.41827280E-03
19  6 1.70341367E-02 1.02582468E-02-1.31407338E-03-2.12388949E-03 3.58585134E-03
19  7-6.78000638E-04-2.79503798E-04-4.13979648E-04-2.15492736E-03-4.73861145E-03
19  8 5.76138722E-05 6.29958004E-04-2.13115976E-04 3.22596365E-04-1.72448925E-03
19  9-3.69244379E-04 3.67718574E-05-5.30382758E-04 5.69037647E-05-5.55795630E-04
19 10 5.46807278E-04-2.97825150E-06-2.14270261E-04 7.26979210E-03 1.98535160E-03
19 11 7.00715570E-04 4.84488611E-03 1.98620416E-02-1.06279849E-02-1.15136132E-01
19 12-2.00633889E-02 1.43479821E-01 8.74836106E-03-8.84164704E-03-4.15608290E-03
20  1-3.16860124E-02-9.59774122E-03-5.11955165E-03 5.70028850E-03-4.28544039E-03
20  2-6.72439947E-03 1.78055750E-03 4.49048754E-03 1.23877495E-04 7.48639027E-03
20  3-3.25961768E-03 3.65692758E-03-1.42721599E-02-7.40523991E-03 2.00801382E-02
20  4 4.25936360E-03-2.83000974E-01 5.53044990E-02-3.68745441E-02 9.53587237E-01
20  5 1.98136667E-01 7.38253985E-02-5.45871512E-01-2.65656154E-01 1.27743381E-02
20  6 1.44710510E-02-3.34141329E-02-6.06810450E-03 5.84376108E-03 1.37131004E-02
20  7 1.10394126E-03-4.86811091E-04 4.30716988E-05 6.28808289E-04-6.29959403E-04
20  8 1.36418435E-03 5.11715138E-04-3.99105014E-05 1.65238695E-04-7.46535106E-05
20  9 2.36034579E-04 3.30806466E-04 8.62451936E-04-2.53568566E-04 8.78944079E-04
20 10-6.62735743E-04-1.75816014E-03-1.59147705E-04-9.21554562E-04-5.19637685E-04
20 11-2.57077056E-03-1.39691183E-02-2.00140150E-02 1.22821154E-02-1.75793162E-02
20 12-8.26478868E-02 3.54062309E-02 1.31744495E-02-1.88583589E-02-2.78409305E-02
21  1-9.11060405E-03-6.91191675E-03 1.05783467E-03 1.51874722E-03 3.77442792E-05
21  2-2.11953598E-03 5.60861758E-04 2.83877590E-03 2.95576779E-03-6.86487250E-03
21  3-1.13024598E-03 2.06296912E-03 9.55349283E-03 4.44690949E-02-2.03760106E-02
21  4 3.62743506E-02 6.12396746E-02-1.36013466E-01-2.78287119E-01 1.98136667E-01
21  5 9.34140806E-01 9.85159129E-02-2.96067482E-01-3.57261291E-01 1.26694464E-02
21  6-4.30364909E-02-2.89735248E-02 2.34222642E-03 8.02706482E-03-3.50856846E-03
21  7-6.44492952E-04 1.13047010E-04-1.88649330E-04-3.07742800E-03-2.56819351E-03
21  8 1.32246944E-03 2.53098203E-04-4.31658300E-04 3.97665341E-04-1.00525616E-03
21  9-6.77996801E-04-1.13483791E-04-4.50927450E-04 1.10074120E-04-5.18084369E-04
21 10-1.13276143E-03-7.69353846E-05 4.38334358E-04 1.68458509E-03 3.39109876E-04
21 11-6.61729667E-03-4.95061097E-03-2.04044405E-02 9.89793388E-03 1.42429884E-01
21 12 4.09415716E-02-4.09019634E-01-2.79157620E-04 1.50533082E-02 1.24356149E-02
22  1-7.40961116E-03-1.34170975E-03-8.10688940E-04 1.97409892E-03-2.09866805E-03
22  2-3.56039585E-03 3.63642186E-03 4.65408361E-03 1.60914537E-03 9.51437111E-03
22  3-3.74435381E-03 1.35727433E-02-9.02106842E-04-9.05586298E-04 1.40599242E-03
22  4 1.67897874E-02 7.02277808E-04-7.97047900E-03-1.09525124E-01 7.38253985E-02
22  5 9.85159129E-02 2.50846182E-01 4.54459984E-03-2.34181705E-01-1.21045766E-01
22  6-1.91154639E-02 6.37384881E-02 1.38149820E-02 8.24089343E-03 2.38628384E-02
22  7 2.78512586E-04-2.96285628E-04 1.76963361E-04-7.95840860E-05-7.76462225E-04
22  8 5.05898308E-04 8.65853763E-05 4.33043345E-06 6.03115700E-05-7.31691033E-04
22  9-3.41486606E-04 1.11602770E-04 4.74559050E-04-2.36982417E-04 3.41792198E-04
22 10 1.16593969E-03-1.40791909E-03 1.83386155E-05-5.59067014E-04-4.53161433E-04
22 11-5.94718856E-04-4.90729874E-04-1.58176100E-03 1.26395574E-03 1.06850834E-02
22 12 1.45176177E-02 8.76636665E-03-6.85246993E-02-7.41891500E-02 3.31674626E-02
23  1 8.89809053E-03 1.69187026E-04 1.05731534E-03-2.16292975E-03 1.72164623E-03
23  2 2.27517298E-03-4.03962903E-04-1.01403523E-03-1.42560999E-03-1.28598488E-02
23  3-3.33976292E-03 3.54871175E-02 8.49290513E-04 3.64742823E-03-4.63794353E-03
23  4-9.36126459E-04-4.56706548E-02-1.84147420E-02 9.17350242E-02-5.45871512E-01
23  5-2.96067482E-01 4.54459984E-03 1.14984162E+00 1.61920878E-01-2.51565321E-02
23  6-1.43032429E-01 5.05135254E-02 2.13595166E-02 5.80199339E-03-5.59493181E-02
23  7-7.73564044E-04 1.26187995E-04 1.41963993E-05-6.08697451E-05-2.40447751E-04
23  8 7.70105228E-05-1.29129665E-04 1.28076238E-04 3.88783960E-05-5.64798325E-04
23  9-6.75950818E-05-3.13015798E-04 1.47191702E-04 2.71237295E-04-1.40502615E-04
23 10-1.10464753E-03-6.47805071E-03 8.30955346E-05-5.76241303E-04 8.34517423E-04
23 11-4.32761711E-04-4.52504705E-04-3.52754009E-03 3.31970188E-03-4.23519740E-03
23 12 9.12305356E-03 9.98521704E-03-7.81173004E-02-4.22422547E-01 1.12609287E-01
24  1 4.85752409E-03 2.13159871E-04 1.24546305E-03-5.61803402E-04 2.58739810E-04
24  2 1.06584810E-03 9.25237166E-04-1.31070332E-04 1.07738203E-04 2.47720737E-03
24  3 3.35635829E-03-7.17214010E-03 4.22415249E-03 7.83143395E-04-3.18204612E-03
24  4-1.42470871E-02 1.51368098E-03 1.63667764E-02 1.01769632E-01-2.65656154E-01
24  5-3.57261291E-01-2.34181705E-01 1.61920878E-01 7.48565101E-01 6.29889407E-02
24  6 5.00836352E-02-2.34101004E-01 2.75743209E-02-2.95848555E-02-4.89243447E-02
24  7-5.18127051E-04-2.03555039E-04 1.15479639E-04 7.20822374E-04-3.35948058E-04
24  8 3.25239875E-04-1.87528524E-04 8.80787407E-05 1.32507850E-04 1.65268787E-04
24  9 4.08364431E-04-4.85569251E-04-9.27869387E-05 7.15460065E-05-2.38833266E-06
24 10 1.37832232E-03 2.15259860E-04 9.60053316E-04 9.57279643E-04-2.11816755E-04
24 11 7.14721877E-04 2.09379811E-03 4.12254288E-03-9.07238104E-04 7.58804355E-03
24 12-3.57367304E-02-7.24032475E-03 3.20686246E-02 1.08824601E-01-1.10323132E-01
25  1 1.15187026E-02 7.02257256E-04-2.72208333E-03-2.34097157E-03 6.08746831E-03
25  2 9.66993854E-03-2.72085003E-02-2.22053945E-02-1.03615024E-02-7.32847026E-02
25  3-5.07874443E-02 2.50716380E-02-2.72734569E-03 3.41690765E-02 1.96492212E-03
25  4-2.09474874E-02-2.47736151E-03-1.28149453E-02 5.41827280E-03 1.27743381E-02
25  5 1.26694464E-02-1.21045766E-01-2.51565321E-02 6.29889407E-02 3.21468494E-01
25  6-6.69092050E-02-2.14744539E-01-1.02476387E-01 1.17033249E-01 1.11508156E-01
25  7-9.94633347E-04 1.08495701E-04-6.00777543E-05-1.07038322E-03-7.13928486E-04
25  8-2.35399374E-04 3.55711607E-04-2.42383156E-04 6.47514967E-04-3.69641167E-03
25  9-4.79267375E-03-1.59105732E-03-3.84912706E-04 5.14922744E-04-1.85552915E-04
25 10-4.86893714E-04-4.27920587E-03-4.91888314E-04 3.06161300E-03 5.73470810E-03
25 11 6.17734693E-03 4.37396305E-05-3.83931914E-04 2.98472970E-04 1.43766982E-02
25 12-1.64973455E-03 6.44768865E-03 4.22017139E-04 2.47303821E-03 5.76394632E-03
26  1-6.09160906E-04-1.10340986E-03 4.69981819E-04 6.47549727E-05 1.38584598E-03
26  2 5.57449959E-03-2.49382633E-02-9.65838655E-03-8.71087878E-03-1.59052166E-02
26  3-2.26122332E-01 5.37041077E-02 1.08182326E-03-3.53371395E-02-9.63813671E-03
26  4 6.18078542E-03 6.00346866E-03 3.78467723E-03 1.70341367E-02 1.44710510E-02
26  5-4.30364909E-02-1.91154639E-02-1.43032429E-01 5.00836352E-02-6.69092050E-02
26  6 1.01333893E+00 3.28001576E-01 1.20236467E-01-6.17950298E-01-4.10980693E-01
26  7 5.22409520E-04-6.02534822E-04 2.42577628E-04 1.56382774E-03 6.92471082E-04
26  8 4.85313616E-04-2.44414771E-04-1.77659800E-04-9.09870121E-05 2.49392706E-03
26  9 3.98124572E-04 1.75400400E-03 6.21865586E-04-2.78223327E-04 8.95597323E-04
26 10-2.71654526E-03 7.67150838E-04-4.40799515E-03-2.01026413E-03-2.27773209E-04
26 11-1.91505664E-04-5.16841754E-04-8.26623295E-04 1.25855707E-03-1.83562163E-03
26 12-6.36069058E-03-1.05783351E-03-1.49998757E-02 4.62011183E-03 3.18599566E-02
27  1 5.20704955E-03 1.72957223E-03-4.11010497E-03-2.27229116E-03 3.19696829E-03
27  2 5.42319625E-03-1.21887051E-02-1.32600389E-02-4.58474919E-03 4.05688496E-02
27  3 4.75215260E-02-1.43921848E-01-1.25843839E-02-1.12933649E-02 2.43114211E-02
27  4-7.59140964E-03 1.11602459E-03-7.28690497E-03 1.02582468E-02-3.34141329E-02
27  5-2.89735248E-02 6.37384881E-02 5.05135254E-02-2.34101004E-01-2.14744539E-01
27  6 3.28001576E-01 8.29459104E-01 1.11205620E-01-4.08666921E-01-4.29596383E-01
27  7-1.85849600E-04 6.28261708E-04-2.70870400E-04-2.19948628E-03-5.18218691E-04
27  8-1.12310912E-03 3.81466039E-04-1.36279727E-04-2.38552732E-04-1.06505382E-03
27  9-1.77036964E-03 2.10589763E-03-2.36651637E-04 2.45622614E-05 2.03039854E-06
27 10 4.73377439E-03 3.90680569E-02-2.48384548E-03 5.59624668E-03-1.03439362E-03
27 11-2.64088327E-03 1.07208040E-03 2.48811138E-03-6.81562524E-04 6.99477178E-03
27 12 1.42578067E-03 1.21311218E-03 3.31172346E-03-5.61943015E-03-2.49960351E-03
28  1-2.42296852E-03 1.38901589E-04 1.89899068E-05 2.49027175E-04-1.12745191E-03
28  2-1.05023254E-03 6.88250732E-04 7.21211237E-04-3.30712919E-04 2.00420022E-02
28  3-9.64453493E-04-2.92622209E-03 3.48590916E-04-4.37500334E-03 1.19096386E-04
28  4 3.72473938E-03 4.25298816E-04 2.06504464E-03-1.31407338E-03-6.06810450E-03
28  5 2.34222642E-03 1.38149820E-02 2.13595166E-02 2.75743209E-02-1.02476387E-01
28  6 1.20236467E-01 1.11205620E-01 7.02530051E-02-1.31010401E-01-1.34725160E-01
28  7 2.99388257E-04-1.90618435E-05 6.19781416E-06 2.77702899E-05 5.16249178E-05
28  8-4.37640069E-05 3.39100389E-05-5.40843969E-06-1.95255975E-04 2.63841095E-05
28  9-2.49090031E-05 6.14646744E-04 2.72134664E-04 7.72100200E-06 2.41825693E-04
28 10-1.00176897E-03 5.57635019E-06-4.48086848E-04-1.29087714E-04-7.58106788E-04
28 11-1.07027035E-03-4.02362003E-05 1.84713312E-04-2.22598625E-04-2.22206092E-03
28 12 1.15590918E-03-7.79360987E-04-1.73594799E-04 6.64687581E-05-2.39762161E-03
29  1 3.31446382E-03 6.26923354E-04 4.12156003E-04-1.76164956E-03 7.38741701E-04
29  2 3.46239737E-04 5.46613019E-03-1.32684847E-03 4.68401195E-04 6.62431204E-03
29  3-6.44209039E-02-3.97898699E-02-6.15941741E-03-1.97196675E-03 1.07458390E-02
29  4-4.67388652E-03-2.30965977E-03-2.25339062E-03-2.12388949E-03 5.84376108E-03
29  5 8.02706482E-03 8.24089343E-03 5.80199339E-03-2.95848555E-02 1.17033249E-01
29  6-6.17950298E-01-4.08666921E-01-1.31010401E-01 6.69566898E-01 4.64832899E-01
29  7-2.80802163E-04 2.39868722E-04-1.43934033E-04-6.32274600E-04-2.42311623E-04
29  8-3.61841696E-04 2.24797137E-04 3.01393811E-04 3.49854275E-05-3.99806958E-04
29  9-5.74362645E-05-2.22468166E-04-1.31104701E-04 1.93681922E-04-2.27537553E-04
29 10 1.15288000E-03 5.33270740E-03-1.12330303E-03 2.83338203E-03-1.08631106E-03
29 11-1.32268379E-03 6.70659512E-04 6.66412209E-04-6.38559633E-05 8.26087763E-04